<number of tasks>
20

<cycle time>
1000

<order strength>
0,226


<task times>
1 560
2 382
3 575
4 544
5 561
6 554
7 447
8 588
9 587
10 726
11 719
12 417
13 422
14 523
15 420
16 527
17 410
18 441
19 613
20 392

<precedence relations>
1,5
2,6
2,8
3,7
5,9
6,11
7,10
7,12
9,13
10,14
11,15
12,16
12,17
13,18
14,18
15,20
17,19

<end>
